p cnf 30 82
1 2 3 0
4 5 6 0
7 8 9 0
10 11 12 0
13 14 15 0
16 17 18 0
19 20 21 0
22 23 24 0
25 26 27 0
28 29 30 0
-1 -2 0
-1 -3 0
-2 -3 0
-4 -5 0
-4 -6 0
-5 -6 0
-7 -8 0
-7 -9 0
-8 -9 0
-10 -11 0
-10 -12 0
-11 -12 0
-13 -14 0
-13 -15 0
-14 -15 0
-16 -17 0
-16 -18 0
-17 -18 0
-19 -20 0
-19 -21 0
-20 -21 0
-22 -23 0
-22 -24 0
-23 -24 0
-25 -26 0
-25 -27 0
-26 -27 0
-28 -29 0
-28 -30 0
-29 -30 0
-4 -7 0
-5 -8 0
-6 -9 0
-4 -22 0
-5 -23 0
-6 -24 0
-7 -10 0
-8 -11 0
-9 -12 0
-7 -25 0
-8 -26 0
-9 -27 0
-10 -13 0
-11 -14 0
-12 -15 0
-10 -28 0
-11 -29 0
-12 -30 0
-13 -1 0
-14 -2 0
-15 -3 0
-13 -16 0
-14 -17 0
-15 -18 0
-1 -19 0
-2 -20 0
-3 -21 0
-19 -28 0
-20 -29 0
-21 -30 0
-19 -25 0
-20 -26 0
-21 -27 0
-22 -16 0
-23 -17 0
-24 -18 0
-22 -28 0
-23 -29 0
-24 -30 0
-25 -16 0
-26 -17 0
-27 -18 0
